study/exp-portion-fine-grain-4v100/run-logs-backup-12-06/unsupervised_samgraph_cache_graphsage_kKHop2_papers100M-undir_coll_cache_asymm_link_2_cache_rate_016_batch_size_2000_concurrent_impl_MPS.log
config:eval_tsp="2022-12-05 16:33:33"
config:arch=arch5
config:num_train_worker=3
config:num_sample_worker=1
config:sample_type=khop2
config:root_path=/nvme/graph-learning-copy/samgraph/
config:dataset=papers100M-undir
config:pipeline=False
config:cache_policy=coll_cache_asymm_link
config:cache_percentage=0.16
config:num_epoch=4
config:batch_size=2000
config:num_hidden=256
config:max_sampling_jobs=1
config:max_copying_jobs=1
config:barriered_epoch=1
config:presample_epoch=2
config:omp_thread_num=13
config:unsupervised=True
config:amp=True
config:rolling=0
config:fanout=[25, 10]
config:lr=0.003
config:dropout=0.5
config:single_gpu=False
config:max_num_step=1000
config:validate_configs=False
config:report_acc=0
config:dataset_path=/nvme/graph-learning-copy/samgraph/papers100M-undir
config:torch_thread_num=13
config:train_workers=['cuda:0', 'cuda:1', 'cuda:2']
config:sample_workers=['cuda:3']
config:num_fanout=2
config:num_layer=2
config:_run_mode=RunMode.FGNN
config:_log_level=warn
config:_profile_level=3
config:_empty_feat=0
config:_arch=5
config:_sample_type=5
config:_cache_policy=13
test_result:init:input_scale_factor=1.1
0 :  {link #0 : 1}, {link #1 : 2},
1 :  {link #0 : 2}, {link #1 : 0},
2 :  {link #0 : 0}, {link #1 : 1},
0 :  {link #0 : 1}, {link #1 : 2},
1 :  {link #0 : 2}, {link #1 : 0},
2 :  {link #0 : 0}, {link #1 : 1},
0 :  {link #0 : 1}, {link #1 : 2},
1 :  {link #0 : 2}, {link #1 : 0},
2 :  {link #0 : 0}, {link #1 : 1},
Set parameter WLSAccessID
Set parameter WLSSecret
Set parameter LicenseID
Set parameter TimeLimit to value 200
Set parameter MIPGap to value 0.05
Set parameter GomoryPasses to value 0
Set parameter Aggregate to value 0
Set parameter LogFile to value "cppsolver.log"
Set parameter Threads to value 26
Academic license - for non-commercial use only - registered to xiaoniu.sxn@sjtu.edu.cn
Gurobi Optimizer version 9.5.1 build v9.5.1rc2 (linux64)
Thread count: 40 physical cores, 80 logical processors, using up to 26 threads
Academic license - for non-commercial use only - registered to xiaoniu.sxn@sjtu.edu.cn
Optimize a model with 21519 rows, 10244 columns and 64527 nonzeros
Model fingerprint: 0x24599d90
Variable types: 4 continuous, 10240 integer (10240 binary)
Coefficient statistics:
  Matrix range     [8e-05, 9e+02]
  Objective range  [1e+00, 1e+00]
  Bounds range     [1e+00, 1e+00]
  RHS range        [1e+00, 1e+03]
Found heuristic solution: objective 2.000000e+09
Presolve removed 12290 rows and 0 columns
Presolve time: 0.09s
Presolved: 9229 rows, 10244 columns, 37901 nonzeros
Found heuristic solution: objective 43198.333330
Variable types: 4 continuous, 10240 integer (10240 binary)

Root relaxation: objective 5.707108e+03, 8683 iterations, 0.29 seconds (0.26 work units)

    Nodes    |    Current Node    |     Objective Bounds      |     Work
 Expl Unexpl |  Obj  Depth IntInf | Incumbent    BestBd   Gap | It/Node Time

     0     0 5707.10800    0   26 43198.3333 5707.10800  86.8%     -    0s
H    0     0                    5713.9780276 5707.10800  0.12%     -    0s

Explored 1 nodes (13974 simplex iterations) in 0.62 seconds (0.51 work units)
Thread count was 26 (of 80 available processors)

Solution count 3: 5713.98 43198.3 2e+09 

Optimal solution found (tolerance 5.00e-02)
Best objective 5.713978027634e+03, best bound 5.707107999832e+03, gap 0.1202%
coll_cache:optimal_local_rate=0.385281,0.385703,0.385967,
coll_cache:optimal_remote_rate=0.543245,0.542823,0.542559,
coll_cache:optimal_cpu_rate=0.071474,0.071474,0.071474,
z=5713.98
test_result:init:feat_nbytes=56862697472
test_result:init:cache_nbytes=9103115264
test_result:init:feat_nbytes=56862697472
test_result:init:cache_nbytes=9100571136
test_result:init:feat_nbytes=56862697472
test_result:init:cache_nbytes=9100988928
[Train  Worker 1/3] Started with PID 123896(Tesla V100-SXM2-16GB)
[Train  Worker 1] run train for 4 epochs with 1002 steps
[Train  Worker 2/3] Started with PID 123899(Tesla V100-SXM2-16GB)
[Train  Worker 2] run train for 4 epochs with 1002 steps
[CUDA] cuda0: usage: 14.55 GB
[SAM] cuda0 data alloc        : 0.00 Bytes
[SAM] cuda0 workspace         : 1.31 GB
[SAM] cuda0 workspace reserve : 659.99 MB
[SAM] cuda0 total             : 1.31 GB
[Train  Worker 0/3] Started with PID 123894(Tesla V100-SXM2-16GB)
[Train  Worker 0] run train for 4 epochs with 1002 steps
Epoch 00000 | Epoch Time 6.4292 | Total Train Time(Profiler) 3.7782 | Copy Time 2.6222
[CUDA] cuda0: usage: 14.55 GB
[SAM] cuda0 data alloc        : 0.00 Bytes
[SAM] cuda0 workspace         : 1.31 GB
[SAM] cuda0 workspace reserve : 661.11 MB
[SAM] cuda0 total             : 1.31 GB
Epoch 00001 | Epoch Time 5.1192 | Total Train Time(Profiler) 2.5033 | Copy Time 2.5875
[CUDA] cuda0: usage: 14.55 GB
[SAM] cuda0 data alloc        : 0.00 Bytes
[SAM] cuda0 workspace         : 1.31 GB
[SAM] cuda0 workspace reserve : 660.47 MB
[SAM] cuda0 total             : 1.31 GB
Epoch 00002 | Epoch Time 5.1426 | Total Train Time(Profiler) 2.5231 | Copy Time 2.5910
[CUDA] cuda0: usage: 14.55 GB
[SAM] cuda0 data alloc        : 0.00 Bytes
[SAM] cuda0 workspace         : 1.31 GB
[SAM] cuda0 workspace reserve : 659.99 MB
[SAM] cuda0 total             : 1.31 GB
Epoch 00003 | Epoch Time 5.1242 | Total Train Time(Profiler) 2.5052 | Copy Time 2.5900
[Train  Worker 2] Avg Epoch Time 5.1286 | Train Total Time(Profiler) 2.4841 | Copy Time 2.6154
[Train  Worker 1] Avg Epoch Time 5.1283 | Train Total Time(Profiler) 2.4858 | Copy Time 2.6118
[Train  Worker 0] Avg Epoch Time 5.1287 | Train Total Time(Profiler) 2.5105 | Copy Time 2.5895
    [Step(average) Profiler Level 1 E3 S1001]
        L1  sample           0.004553 | send           0.001196
        L1  recv             0.000000 | copy           0.000000 | convert time 0.000000 | train  0.000000
        L1  feature nbytes 0.00 Bytes | label nbytes 0.00 Bytes
        L1  id nbytes      0.00 Bytes | graph nbytes 0.00 Bytes
        L1  miss nbytes    0.00 Bytes | remote nbytes 0.00 Bytes
        L1  num nodes         1156408 | num samples     1337801
    [Step(average) Profiler Level 2 E3 S1001]
        L2  shuffle     0.000075 | core sample  0.001356 | id remap        0.002935
        L2  graph copy  0.000000 | id copy      0.000000 | cache feat copy 0.000000
        L2  last layer sample time 0.000295 | size 57561.252828
    [Step(average) Profiler Level 3 E3 S1001]
        L3  khop sample coo  0.001059 | khop sort coo      0.000000 | khop count edge     0.000036 | khop compact edge 0.000211
        L3  walk sample coo  0.000000 | walk topk total    0.000000 | walk topk step1     0.000000 | walk topk step2   0.000000
        L3  walk topk step3  0.000000 | walk topk step4    0.000000 | walk topk step5     0.000000
        L3  walk topk step6  0.000000 | walk topk step7    0.000000
        L3  remap unique     0.000176 | remap populate     0.002493 | remap mapnode       0.000000 | remap mapedge     0.000454
        L3  cache get_index  0.000000 | cache copy_index   0.000000 | cache extract_miss  0.000000
        L3  cache copy_miss  0.000000 | cache combine_miss 0.000000 | cache combine cache 0.000000 | cache combine remote 0.000000
        L3  label extract  0.000000
    [Init Profiler Level 1]
        L1  init     6.3091 | sampler init    47.7782 | trainer init 0.0000
    [Init Profiler Level 2]
        L2  load ds         9.4010 | init queue          22.9863
        L2  presample      19.9169 | build interal ds     1.7807
        L2  build cache     0.0000
    [Init Profiler Level 3]
        L3  load dataset: mmap     6.3063 | copy         3.0948
        L3  dist queue: alloc      0.0007 | pin         22.9856 | push     0.0000
        L3  presample: init        0.3022
        L3  presample: sample      9.1670 | copy         0.7306
        L3  presample: count       9.0159 | sort         0.2906
        L3  presample: reset       0.0019 | get rank     0.0408
        L3  internal: cuda ctx     1.5431 | cuda stream     0.2311
[Sample Worker 0/1] Started with PID 123892(Tesla V100-SXM2-16GB)
[Sample Worker 0] run sample for 4 epochs with 1002 steps
[Sample Worker 0] Avg Sample Total Time 5.7715 | Sampler Total Time(Profiler) 5.7605
test_result:sample_time=4.5624
test_result:get_cache_miss_index_time=0.0000
test_result:enqueue_samples_time=1.1981
test_result:epoch_time:sample_total=5.7715
[CUDA] cuda0: usage: 14.55 GB
[SAM] cuda0 data alloc        : 0.00 Bytes
[SAM] cuda0 workspace         : 1.31 GB
[SAM] cuda0 workspace reserve : 659.99 MB
[SAM] cuda0 total             : 1.31 GB
    [Step(average) Profiler Level 1 E3 S1001]
        L1  sample           0.000000 | send           0.000000
        L1  recv             0.001339 | copy           0.007801 | convert time 0.000448 | train  0.007018
        L1  feature nbytes  564.65 MB | label nbytes   15.62 KB
        L1  id nbytes      0.00 Bytes | graph nbytes 0.00 Bytes
        L1  miss nbytes      45.05 MB | remote nbytes  303.68 MB
        L1  num nodes               0 | num samples           0
    [Step(average) Profiler Level 2 E3 S1001]
        L2  shuffle     0.000000 | core sample  0.000000 | id remap        0.000000
        L2  graph copy  0.000003 | id copy      0.000000 | cache feat copy 0.006459
        L2  last layer sample time 0.000000 | size 0.000000
    [Step(average) Profiler Level 3 E3 S1001]
        L3  khop sample coo  0.000000 | khop sort coo      0.000000 | khop count edge     0.000000 | khop compact edge 0.000000
        L3  walk sample coo  0.000000 | walk topk total    0.000000 | walk topk step1     0.000000 | walk topk step2   0.000000
        L3  walk topk step3  0.000000 | walk topk step4    0.000000 | walk topk step5     0.000000
        L3  walk topk step6  0.000000 | walk topk step7    0.000000
        L3  remap unique     0.000000 | remap populate     0.000000 | remap mapnode       0.000000 | remap mapedge     0.000000
        L3  cache get_index  0.000733 | cache copy_index   0.000000 | cache extract_miss  0.000000
        L3  cache copy_miss  0.000000 | cache combine_miss 0.005700 | cache combine cache 0.001195 | cache combine remote 0.003945
        L3  label extract  0.000015
    [Step(max) Profiler Level 1 E3 S1001]
        L1  sample           0.000000 | send           0.000000
        L1  recv             0.000000 | copy           0.000000 | convert time 0.000000 | train  0.000000
        L1  feature nbytes 0.00 Bytes | label nbytes 0.00 Bytes
        L1  id nbytes      0.00 Bytes | graph nbytes   10.37 MB
        L1  miss nbytes    0.00 Bytes | remote nbytes 0.00 Bytes
        L1  num nodes               0 | num samples           0
    [Step(max) Profiler Level 2 E3 S1001]
        L2  shuffle     0.000000 | core sample  0.000000 | id remap        0.000000
        L2  graph copy  0.000000 | id copy      0.000000 | cache feat copy 0.000000
        L2  last layer sample time 0.000000 | size 0.000000
    [Step(max) Profiler Level 3 E3 S1001]
        L3  khop sample coo  0.000000 | khop sort coo      0.000000 | khop count edge     0.000000 | khop compact edge 0.000000
        L3  walk sample coo  0.000000 | walk topk total    0.000000 | walk topk step1     0.000000 | walk topk step2   0.000000
        L3  walk topk step3  0.000000 | walk topk step4    0.000000 | walk topk step5     0.000000
        L3  walk topk step6  0.000000 | walk topk step7    0.000000
        L3  remap unique     0.000000 | remap populate     0.000000 | remap mapnode       0.000000 | remap mapedge     0.000000
        L3  cache get_index  0.000000 | cache copy_index   0.000000 | cache extract_miss  0.000000
        L3  cache copy_miss  0.000000 | cache combine_miss 0.000000 | cache combine cache 0.000000 | cache combine remote 0.000000
        L3  label extract  0.000000
    [Step(min) Profiler Level 1 E3 S1001]
        L1  sample           0.000000 | send           0.000000
        L1  recv             0.000000 | copy           0.000000 | convert time 0.000000 | train  0.000000
        L1  feature nbytes 0.00 Bytes | label nbytes 0.00 Bytes
        L1  id nbytes      0.00 Bytes | graph nbytes   10.10 MB
        L1  miss nbytes    0.00 Bytes | remote nbytes 0.00 Bytes
        L1  num nodes               0 | num samples           0
    [Step(min) Profiler Level 2 E3 S1001]
        L2  shuffle     0.000000 | core sample  0.000000 | id remap        0.000000
        L2  graph copy  0.000000 | id copy      0.000000 | cache feat copy 0.000000
        L2  last layer sample time 0.000000 | size 0.000000
    [Step(min) Profiler Level 3 E3 S1001]
        L3  khop sample coo  0.000000 | khop sort coo      0.000000 | khop count edge     0.000000 | khop compact edge 0.000000
        L3  walk sample coo  0.000000 | walk topk total    0.000000 | walk topk step1     0.000000 | walk topk step2   0.000000
        L3  walk topk step3  0.000000 | walk topk step4    0.000000 | walk topk step5     0.000000
        L3  walk topk step6  0.000000 | walk topk step7    0.000000
        L3  remap unique     0.000000 | remap populate     0.000000 | remap mapnode       0.000000 | remap mapedge     0.000000
        L3  cache get_index  0.000000 | cache copy_index   0.000000 | cache extract_miss  0.000000
        L3  cache copy_miss  0.000000 | cache combine_miss 0.000000 | cache combine cache 0.000000 | cache combine remote 0.000000
        L3  label extract  0.000000
    [Init Profiler Level 1]
        L1  init     6.3091 | sampler init     0.0000 | trainer init 84.0790
    [Init Profiler Level 2]
        L2  load ds         6.3063 | init queue          22.9384
        L2  presample       0.0000 | build interal ds     1.4762
        L2  build cache    59.6601
    [Init Profiler Level 3]
        L3  load dataset: mmap     6.3063 | copy         0.0000
        L3  dist queue: alloc      0.0007 | pin         22.9377 | push     0.0000
        L3  presample: init        0.0000
        L3  presample: sample      0.0000 | copy         0.0000
        L3  presample: count       0.0000 | sort         0.0000
        L3  presample: reset       0.0000 | get rank     0.0000
        L3  internal: cuda ctx     1.4761 | cuda stream     0.0001
|===========================================================================|
|                  PyTorch CUDA memory summary, device ID 0                 |
|---------------------------------------------------------------------------|
|            CUDA OOMs: 0            |        cudaMalloc retries: 0         |
|===========================================================================|
|        Metric         | Cur Usage  | Peak Usage | Tot Alloc  | Tot Freed  |
|---------------------------------------------------------------------------|
| Allocated memory      |   18432 KB |  393110 KB |    1572 GB |    1572 GB |
|       from large pool |   14105 KB |  391906 KB |    1560 GB |    1560 GB |
|       from small pool |    4327 KB |    6145 KB |      11 GB |      11 GB |
|---------------------------------------------------------------------------|
| Active memory         |   18432 KB |  393110 KB |    1572 GB |    1572 GB |
|       from large pool |   14105 KB |  391906 KB |    1560 GB |    1560 GB |
|       from small pool |    4327 KB |    6145 KB |      11 GB |      11 GB |
|---------------------------------------------------------------------------|
| GPU reserved memory   |  473088 KB |  473088 KB |  473088 KB |       0 B  |
|       from large pool |  464896 KB |  464896 KB |  464896 KB |       0 B  |
|       from small pool |    8192 KB |    8192 KB |    8192 KB |       0 B  |
|---------------------------------------------------------------------------|
| Non-releasable memory |   20479 KB |  355038 KB |    1719 GB |    1719 GB |
|       from large pool |   18663 KB |  352740 KB |    1706 GB |    1706 GB |
|       from small pool |    1816 KB |    3433 KB |      13 GB |      13 GB |
|---------------------------------------------------------------------------|
| Allocations           |      39    |      56    |  183068    |  183029    |
|       from large pool |       3    |      14    |   65464    |   65461    |
|       from small pool |      36    |      45    |  117604    |  117568    |
|---------------------------------------------------------------------------|
| Active allocs         |      40    |      56    |  183068    |  183028    |
|       from large pool |       3    |      14    |   65464    |   65461    |
|       from small pool |      37    |      45    |  117604    |  117567    |
|---------------------------------------------------------------------------|
| GPU reserved segments |      11    |      11    |      11    |       0    |
|       from large pool |       7    |       7    |       7    |       0    |
|       from small pool |       4    |       4    |       4    |       0    |
|---------------------------------------------------------------------------|
| Non-releasable allocs |      12    |      24    |   73118    |   73106    |
|       from large pool |       2    |      10    |   37359    |   37357    |
|       from small pool |      10    |      17    |   35759    |   35749    |
|---------------------------------------------------------------------------|
| Oversize allocations  |       0    |       0    |       0    |       0    |
|---------------------------------------------------------------------------|
| Oversize GPU segments |       0    |       0    |       0    |       0    |
|===========================================================================|

test_result:epoch_time:copy_time=2.5895
test_result:convert_time=0.1470
test_result:train_time=2.3635
test_result:epoch_time:train_total=2.5105
test_result:cache_percentage=0.1600
test_result:cache_hit_rate=1.0000
test_result:run_time=44.9153
